GLPSOL--GLPK LP/MIP Solver 5.0
Parameter(s) specified in the command line:
 --lp ../modeles/3_29.lp --log 3_29.log
Reading problem data from '../modeles/3_29.lp'...
100 rows, 180 columns, 624 non-zeros
87 integer variables, all of which are binary
289 lines were read
GLPK Integer Optimizer 5.0
100 rows, 180 columns, 624 non-zeros
87 integer variables, all of which are binary
Preprocessing...
90 constraint coefficient(s) were reduced
100 rows, 177 columns, 621 non-zeros
87 integer variables, all of which are binary
Scaling...
 A: min|aij| =  4.756e-03  max|aij| =  4.000e+00  ratio =  8.410e+02
GM: min|aij| =  1.857e-01  max|aij| =  5.385e+00  ratio =  2.900e+01
EQ: min|aij| =  3.448e-02  max|aij| =  1.000e+00  ratio =  2.900e+01
2N: min|aij| =  3.125e-02  max|aij| =  1.590e+00  ratio =  5.087e+01
Constructing initial basis...
Size of triangular part is 100
Solving LP relaxation...
GLPK Simplex Optimizer 5.0
100 rows, 177 columns, 621 non-zeros
      0: obj =   6.000000000e+00 inf =   1.450e+01 (7)
     20: obj =   4.934523810e-01 inf =   0.000e+00 (0)
*    55: obj =  -1.720905172e+00 inf =   0.000e+00 (0)
OPTIMAL LP SOLUTION FOUND
Integer optimization begins...
Long-step dual simplex will be used
+    55: mip =     not found yet >=              -inf        (1; 0)
+    86: >>>>>  -1.720905172e+00 >=  -1.720905172e+00 < 0.1% (31; 0)
+    86: mip =  -1.720905172e+00 >=     tree is empty   0.0% (0; 61)
INTEGER OPTIMAL SOLUTION FOUND
Time used:   0.0 secs
Memory used: 0.3 Mb (310103 bytes)
